webassembly/ejemplos_dzn/13/folder13_json_89.dzn
TERM = { '.', 's(2)', 's(4)', 'in_1', 'local_1', 'in_2', 'in_4', 'in_3', 's(1)', 's(0)', 'in_5', 's(3)', 'in_0'};
null = '.';
s = 13;
n = 13;
ndeps = 8;
max_registers_sz = 4;
NR = 1;
registers = [|'local_1', 'in_4'|];
dependencies = [|'i32.load8_s_2', 'i32.store16_5', |'i32.store16_5', 'i32.load16_u_6', |'i32.store_7', 'i32.load8_u_8', |'i32.store_9', 'i32.load16_s_11', |'i32.load8_u_4', 'i32.store16_5', |'i32.load16_u_6', 'i32.store_7', |'i32.load8_u_8', 'i32.store_9', |'i32.load16_s_11', 'i32.store_12'|];
GET_ENUM = { GET1, GET2, GET3, GET4, GET5};
SET_ENUM = { SET1, SET2, SET3, SET4, SET5};
TEE_ENUM = { TEE1, TEE2, TEE3, TEE4, TEE5};
N = 9;
OP = { 'i32.load8_s_2', 'i32.load8_u_4', 'i32.store16_5', 'i32.load16_u_6', 'i32.store_7', 'i32.load8_u_8', 'i32.store_9', 'i32.load16_s_11', 'i32.store_12' };
in_ops = [1, 1, 2, 1, 2, 1, 2, 1, 2 ];
out_ops = [1, 1, 0, 1, 0, 1, 0, 1, 0 ];
in1 = ['local_1', 's(0)', 's(1)', 'in_0', 's(2)', 'in_2', 's(3)', 'in_4', 's(4)' ];
in2 = ['.', '.', 'local_1', '.', 'in_1', '.', 'in_3', '.', 'in_5' ];
in3 = ['.', '.', '.', '.', '.', '.', '.', '.', '.' ];
out1 = ['s(0)', 's(1)', '.', 's(2)', '.', 's(3)', '.', 's(4)', '.' ];
out2 = ['.', '.', '.', '.', '.', '.', '.', '.', '.' ];
out3 = ['.', '.', '.', '.', '.', '.', '.', '.', '.' ];
comm = [false, false, false, false, false, false, false, false, false ];
gas = [1, 1, 1, 1, 1, 1, 1, 1, 1 ];
sz = [1, 1, 1, 1, 1, 1, 1, 1, 1 ];
stor = [false, false, true, false, true, false, true, false, true ];
lb = [ 1, 1, 1, 1, 1, 1, 1, 1, 1 ];
ub = [ 13, 13, 13, 13, 13, 13, 13, 13, 13 ];
startstack = [ 'in_0', 'in_1', 'in_2', 'in_3', 'in_4', 'in_5', null, null, null, null, null, null, null ];
endstack = [ null, null, null, null, null, null, null, null, null, null, null, null, null ];
